objective value:                                  514
t_x1                                                1 	(obj:2)
t_x246                                              1 	(obj:2)
t_x247                                              1 	(obj:1)
t_x249                                              1 	(obj:1)
t_x310                                              1 	(obj:1)
t_x354                                              1 	(obj:2)
t_x398                                              1 	(obj:2)
t_x582                                              1 	(obj:2)
t_x583                                              1 	(obj:2)
t_x608                                              1 	(obj:2)
t_x611                                              1 	(obj:2)
t_x615                                              1 	(obj:2)
t_x620                                              1 	(obj:2)
t_x1287                                             1 	(obj:2)
t_x1327                                             1 	(obj:1)
t_x1393                                             1 	(obj:1)
t_x2010                                             1 	(obj:1)
t_x2064                                             1 	(obj:1)
t_x2326                                             1 	(obj:2)
t_x2347                                             1 	(obj:2)
t_x2417                                             1 	(obj:1)
t_x2430                                             1 	(obj:2)
t_x2655                                             1 	(obj:1)
t_x2750                                             1 	(obj:2)
t_x2760                                             1 	(obj:2)
t_x2770                                             1 	(obj:1)
t_x2771                                             1 	(obj:1)
t_x2852                                             1 	(obj:2)
t_x2857                                             1 	(obj:2)
t_x2879                                             1 	(obj:2)
t_x2939                                             1 	(obj:2)
t_x2949                                             1 	(obj:2)
t_x2950                                             1 	(obj:2)
t_x2974                                             1 	(obj:2)
t_x3022                                             1 	(obj:2)
t_x3028                                             1 	(obj:2)
t_x3038                                             1 	(obj:2)
t_x3041                                             1 	(obj:2)
t_x3046                                             1 	(obj:2)
t_x3049                                             1 	(obj:2)
t_x3115                                             1 	(obj:2)
t_x3116                                             1 	(obj:2)
t_x3117                                             1 	(obj:1)
t_x3155                                             1 	(obj:2)
t_x3173                                             1 	(obj:1)
t_x3175                                             1 	(obj:2)
t_x3259                                             1 	(obj:2)
t_x3264                                             1 	(obj:2)
t_x3265                                             1 	(obj:2)
t_x3272                                             1 	(obj:2)
t_x3307                                             1 	(obj:1)
t_x3314                                             1 	(obj:2)
t_x3343                                             1 	(obj:2)
t_x3458                                             1 	(obj:2)
t_x3954                                             1 	(obj:2)
t_x3977                                             1 	(obj:2)
t_x4341                                             1 	(obj:1)
t_x4671                                             1 	(obj:2)
t_x4674                                             1 	(obj:2)
t_x5509                                             1 	(obj:2)
t_x5760                                             1 	(obj:2)
t_x5768                                             1 	(obj:2)
t_x5774                                             1 	(obj:2)
t_x5891                                             1 	(obj:1)
t_x5975                                             1 	(obj:1)
t_x6230                                             1 	(obj:1)
t_x6596                                             1 	(obj:1)
t_x6853                                             1 	(obj:1)
t_x6860                                             1 	(obj:1)
t_x6883                                             1 	(obj:1)
t_x7179                                             1 	(obj:1)
t_x7280                                             1 	(obj:1)
t_x7566                                             1 	(obj:1)
t_x7605                                             1 	(obj:1)
t_x7855                                             1 	(obj:2)
t_x7857                                             1 	(obj:2)
t_x7863                                             1 	(obj:2)
t_x8937                                             1 	(obj:2)
t_x9026                                             1 	(obj:1)
t_x9029                                             1 	(obj:2)
t_x9124                                             1 	(obj:2)
t_x9189                                             1 	(obj:2)
t_x9260                                             1 	(obj:1)
t_x9262                                             1 	(obj:1)
t_x9295                                             1 	(obj:2)
t_x9298                                             1 	(obj:2)
t_x9345                                             1 	(obj:2)
t_x9376                                             1 	(obj:2)
t_x9964                                             1 	(obj:1)
t_x10350                                            1 	(obj:1)
t_x10374                                            1 	(obj:1)
t_x10644                                            1 	(obj:2)
t_x10647                                            1 	(obj:2)
t_x10653                                            1 	(obj:1)
t_x10684                                            1 	(obj:1)
t_x10710                                            1 	(obj:2)
t_x10718                                            1 	(obj:1)
t_x10881                                            1 	(obj:2)
t_x11015                                            1 	(obj:2)
t_x11018                                            1 	(obj:2)
t_x11047                                            1 	(obj:2)
t_x11071                                            1 	(obj:2)
t_x11116                                            1 	(obj:2)
t_x11171                                            1 	(obj:2)
t_x11223                                            1 	(obj:1)
t_x11308                                            1 	(obj:1)
t_x11552                                            1 	(obj:1)
t_x11594                                            1 	(obj:1)
t_x11595                                            1 	(obj:1)
t_x11642                                            1 	(obj:1)
t_x11812                                            1 	(obj:1)
t_x11813                                            1 	(obj:1)
t_x11834                                            1 	(obj:1)
t_x11959                                            1 	(obj:1)
t_x11969                                            1 	(obj:1)
t_x12119                                            1 	(obj:1)
t_x12130                                            1 	(obj:1)
t_x12322                                            1 	(obj:1)
t_x12392                                            1 	(obj:1)
t_x12496                                            1 	(obj:2)
t_x12498                                            1 	(obj:1)
t_x12646                                            1 	(obj:1)
t_x12651                                            1 	(obj:1)
t_x12700                                            1 	(obj:1)
t_x12748                                            1 	(obj:1)
t_x12878                                            1 	(obj:2)
t_x13075                                            1 	(obj:1)
t_x13109                                            1 	(obj:2)
t_x13298                                            1 	(obj:2)
t_x14245                                            1 	(obj:2)
t_x14411                                            1 	(obj:2)
t_x14452                                            1 	(obj:2)
t_x14503                                            1 	(obj:2)
t_x15199                                            1 	(obj:1)
t_x15480                                            1 	(obj:2)
t_x16402                                            1 	(obj:2)
t_x16411                                            1 	(obj:2)
t_x16641                                            1 	(obj:2)
t_x17877                                            1 	(obj:2)
t_x18132                                            1 	(obj:2)
t_x18529                                            1 	(obj:2)
t_x18536                                            1 	(obj:2)
t_x18538                                            1 	(obj:2)
t_x19940                                            1 	(obj:2)
t_x19971                                            1 	(obj:2)
t_x19984                                            1 	(obj:2)
t_x20647                                            1 	(obj:1)
t_x20668                                            1 	(obj:2)
t_x20669                                            1 	(obj:2)
t_x22386                                            1 	(obj:2)
t_x23573                                            1 	(obj:2)
t_x23578                                            1 	(obj:2)
t_x23626                                            1 	(obj:2)
t_x23798                                            1 	(obj:2)
t_x23799                                            1 	(obj:1)
t_x23811                                            1 	(obj:2)
t_x23879                                            1 	(obj:2)
t_x24063                                            1 	(obj:1)
t_x24173                                            1 	(obj:1)
t_x25974                                            1 	(obj:2)
t_x27080                                            1 	(obj:2)
t_x27237                                            1 	(obj:2)
t_x27247                                            1 	(obj:2)
t_x27512                                            1 	(obj:2)
t_x27524                                            1 	(obj:2)
t_x27848                                            1 	(obj:2)
t_x27849                                            1 	(obj:2)
t_x28193                                            1 	(obj:2)
t_x30548                                            1 	(obj:2)
t_x30715                                            1 	(obj:2)
t_x30756                                            1 	(obj:1)
t_x30809                                            1 	(obj:2)
t_x30827                                            1 	(obj:1)
t_x30851                                            1 	(obj:1)
t_x30855                                            1 	(obj:1)
t_x31066                                            1 	(obj:2)
t_x33190                                            1 	(obj:1)
t_x34452                                            1 	(obj:2)
t_x34815                                            1 	(obj:2)
t_x36210                                            1 	(obj:2)
t_x36734                                            1 	(obj:1)
t_x36827                                            1 	(obj:2)
t_x37441                                            1 	(obj:2)
t_x37778                                            1 	(obj:1)
t_x37970                                            1 	(obj:2)
t_x38026                                            1 	(obj:2)
t_x38063                                            1 	(obj:2)
t_x38070                                            1 	(obj:2)
t_x38217                                            1 	(obj:2)
t_x38221                                            1 	(obj:2)
t_x38225                                            1 	(obj:2)
t_x38260                                            1 	(obj:2)
t_x38342                                            1 	(obj:2)
t_x38367                                            1 	(obj:2)
t_x38382                                            1 	(obj:1)
t_x38387                                            1 	(obj:2)
t_x38517                                            1 	(obj:2)
t_x38911                                            1 	(obj:2)
t_x39018                                            1 	(obj:2)
t_x39077                                            1 	(obj:2)
t_x39389                                            1 	(obj:1)
t_x39709                                            1 	(obj:1)
t_x40105                                            1 	(obj:2)
t_x40626                                            1 	(obj:1)
t_x40780                                            1 	(obj:1)
t_x40833                                            1 	(obj:1)
t_x41017                                            1 	(obj:1)
t_x41085                                            1 	(obj:1)
t_x41129                                            1 	(obj:1)
t_x41196                                            1 	(obj:1)
t_x41268                                            1 	(obj:1)
t_x41382                                            1 	(obj:1)
t_x41610                                            1 	(obj:1)
t_x41712                                            1 	(obj:1)
t_x41840                                            1 	(obj:1)
t_x42243                                            1 	(obj:2)
t_x42260                                            1 	(obj:2)
t_x42320                                            1 	(obj:1)
t_x42444                                            1 	(obj:1)
t_x42445                                            1 	(obj:1)
t_x42777                                            1 	(obj:1)
t_x43717                                            1 	(obj:2)
t_x43767                                            1 	(obj:2)
t_x43821                                            1 	(obj:2)
t_x43992                                            1 	(obj:1)
t_x44469                                            1 	(obj:1)
t_x44472                                            1 	(obj:2)
t_x44684                                            1 	(obj:1)
t_x44698                                            1 	(obj:1)
t_x44801                                            1 	(obj:2)
t_x44977                                            1 	(obj:2)
t_x45006                                            1 	(obj:2)
t_x45223                                            1 	(obj:2)
t_x45235                                            1 	(obj:2)
t_x45305                                            1 	(obj:2)
t_x45354                                            1 	(obj:2)
t_x45480                                            1 	(obj:1)
t_x45719                                            1 	(obj:2)
t_x46196                                            1 	(obj:2)
t_x47177                                            1 	(obj:2)
t_x47857                                            1 	(obj:2)
t_x47885                                            1 	(obj:1)
t_x47897                                            1 	(obj:1)
t_x47951                                            1 	(obj:2)
t_x47954                                            1 	(obj:2)
t_x48000                                            1 	(obj:2)
t_x48103                                            1 	(obj:2)
t_x48232                                            1 	(obj:2)
t_x48277                                            1 	(obj:1)
t_x48338                                            1 	(obj:2)
t_x48477                                            1 	(obj:2)
t_x48923                                            1 	(obj:2)
t_x48928                                            1 	(obj:2)
t_x48962                                            1 	(obj:1)
t_x49228                                            1 	(obj:2)
t_x49235                                            1 	(obj:2)
t_x49279                                            1 	(obj:2)
t_x49387                                            1 	(obj:1)
t_x50608                                            1 	(obj:2)
t_x52110                                            1 	(obj:2)
t_x52535                                            1 	(obj:2)
t_x52537                                            1 	(obj:2)
t_x52551                                            1 	(obj:2)
t_x53275                                            1 	(obj:1)
t_x53276                                            1 	(obj:1)
t_x53665                                            1 	(obj:1)
t_x53971                                            1 	(obj:1)
t_x54872                                            1 	(obj:1)
t_x54923                                            1 	(obj:2)
t_x54974                                            1 	(obj:2)
t_x55039                                            1 	(obj:1)
t_x55661                                            1 	(obj:2)
t_x55671                                            1 	(obj:2)
t_x55673                                            1 	(obj:2)
t_x55675                                            1 	(obj:1)
t_x55761                                            1 	(obj:2)
t_x55812                                            1 	(obj:2)
t_x55858                                            1 	(obj:2)
t_x56144                                            1 	(obj:2)
t_x56281                                            1 	(obj:2)
t_x56642                                            1 	(obj:1)
t_x56704                                            1 	(obj:2)
t_x56893                                            1 	(obj:2)
t_x56922                                            1 	(obj:1)
t_x56965                                            1 	(obj:2)
t_x57102                                            1 	(obj:1)
t_x57118                                            1 	(obj:1)
t_x57150                                            1 	(obj:2)
t_x57168                                            1 	(obj:2)
t_x57176                                            1 	(obj:1)
t_x57368                                            1 	(obj:2)
t_x57369                                            1 	(obj:2)
t_x57551                                            1 	(obj:2)
t_x57783                                            1 	(obj:2)
t_x57796                                            1 	(obj:2)
t_x57798                                            1 	(obj:2)
t_x57906                                            1 	(obj:1)
t_x57922                                            1 	(obj:2)
t_x59935                                            1 	(obj:2)
t_x60233                                            1 	(obj:2)
t_x60915                                            1 	(obj:2)
t_x61113                                            1 	(obj:1)
t_x61650                                            1 	(obj:2)
t_x61902                                            1 	(obj:2)
t_x62298                                            1 	(obj:2)
t_x62316                                            1 	(obj:2)
t_x62322                                            1 	(obj:2)
t_x62365                                            1 	(obj:1)
t_x62384                                            1 	(obj:1)
t_x62389                                            1 	(obj:2)
t_x62411                                            1 	(obj:1)
t_x62731                                            1 	(obj:2)
t_x62873                                            1 	(obj:2)
t_x62921                                            1 	(obj:2)
